num_offers = 25;
num_halls = 10;
start=[2,45,47,9,27,35,4,52,47,38,8,11,3,9,61,18,66,48,10,9,12,30,7,2,7];
end=[63,97,49,83,79,58,6,91,61,52,51,79,61,70,98,39,88,88,82,19,56,72,28,75,84];
price=[5885,1042,231,3340,3891,719,251,2940,1184,285,1248,2226,4622,6010,2832,337,1006,2149,3386,844,2656,3693,1843,1493,7327];
requirement=[917,275,594,359,313,251,744,299,293,538,839,597,641,440,879,327,470,236,523,321,327,985,848,585,992];
capacity=[778,468,565,865,783,600,736,703,527,399];
